(declare-fun temp2163_1 () (_ BitVec 64))
(declare-fun temp2163_2 () (_ BitVec 64))
(declare-fun var76042 () (_ BitVec 64))
(declare-fun k!0 () Bool)
(declare-fun ARGNAME_input_NAMEEND_DIM () (_ BitVec 64))
(declare-fun ARGNAME_data_format_NAMEEND_STRFMT () (_ BitVec 64))
(declare-fun temp2163_3 () (_ BitVec 64))
(declare-fun ARGNAME_out_backprop_NAMEEND_DIM () (_ BitVec 64))
(declare-fun var76103 () (_ BitVec 64))
(declare-fun temp2163_4 () (_ BitVec 64))
(declare-fun temp2163_5 () (_ BitVec 64))
(declare-fun ARGNAME_input_NAMEEND_DIMSIZE
             ()
             (Array (_ BitVec 64) (_ BitVec 64)))
(declare-fun temp2163_6 () (_ BitVec 64))
(declare-fun temp2163_7 () (_ BitVec 64))
(declare-fun temp2163_8 () (_ BitVec 64))
(declare-fun temp2163_9 () (_ BitVec 64))
(declare-fun temp2163_10 () (_ BitVec 64))
(declare-fun temp2163_11 () (_ BitVec 64))
(declare-fun temp2163_12 () (_ BitVec 64))
(declare-fun temp2163_13 () (_ BitVec 64))
(declare-fun temp2163_14 () (_ BitVec 64))
(declare-fun temp2163_15 () (_ BitVec 64))
(declare-fun temp2163_16 () (_ BitVec 64))
(declare-fun temp2163_17 () (_ BitVec 64))
(declare-fun temp2163_18 () (_ BitVec 64))
(declare-fun var76131 () (_ BitVec 64))
(declare-fun temp2163_19 () (_ BitVec 64))
(declare-fun ARGNAME_out_backprop_NAMEEND_DIMSIZE
             ()
             (Array (_ BitVec 64) (_ BitVec 64)))
(declare-fun temp2163_20 () (_ BitVec 64))
(declare-fun temp2163_21 () (_ BitVec 64))
(declare-fun temp2163_22 () (_ BitVec 64))
(declare-fun temp2163_23 () (_ BitVec 64))
(declare-fun temp2163_24 () (_ BitVec 64))
(declare-fun temp2163_25 () (_ BitVec 64))
(declare-fun temp2163_26 () (_ BitVec 64))
(declare-fun temp2163_27 () (_ BitVec 64))
(declare-fun temp2163_28 () (_ BitVec 64))
(declare-fun temp2163_29 () (_ BitVec 64))
(declare-fun temp2163_30 () (_ BitVec 64))
(declare-fun temp2163_31 () (_ BitVec 64))
(declare-fun temp2163_32 () (_ BitVec 64))
(declare-fun var76165 () (_ BitVec 64))
(declare-fun temp2163_33 () (_ BitVec 64))
(declare-fun ARGNAME_input_NAMEEND_NUMELEMENT () (_ BitVec 64))
(declare-fun var76268 () (_ BitVec 64))
(declare-fun temp2163_34 () (_ BitVec 64))
(declare-fun temp2163_35 () (_ BitVec 64))
(declare-fun var275510 () (_ BitVec 64))
(declare-fun temp2163_36 () (_ BitVec 64))
(declare-fun var275528 () (_ BitVec 64))
(declare-fun temp2163_37 () (_ BitVec 64))
(declare-fun temp2163_39 () (_ BitVec 64))
(declare-fun temp2163_38 () (_ BitVec 64))
(declare-fun temp2163_41 () (_ BitVec 64))
(declare-fun temp2163_40 () (_ BitVec 64))
(declare-fun temp2163_42 () (_ BitVec 64))
(declare-fun var406582 () (_ BitVec 64))
(declare-fun temp2163_43 () (_ BitVec 64))
(declare-fun var406600 () (_ BitVec 64))
(declare-fun temp2163_44 () (_ BitVec 64))
(declare-fun temp2163_45 () (_ BitVec 64))
(declare-fun var537654 () (_ BitVec 64))
(declare-fun temp2163_46 () (_ BitVec 64))
(declare-fun var537672 () (_ BitVec 64))
(declare-fun temp2163_47 () (_ BitVec 64))
(declare-fun temp2163_49 () (_ BitVec 64))
(declare-fun temp2163_48 () (_ BitVec 64))
(declare-fun temp2163_51 () (_ BitVec 64))
(declare-fun temp2163_50 () (_ BitVec 64))
(declare-fun temp2163_53 () (_ BitVec 64))
(declare-fun temp2163_52 () (_ BitVec 64))
(declare-fun temp2163_55 () (_ BitVec 64))
(declare-fun temp2163_54 () (_ BitVec 64))
(declare-fun temp2163_56 () (_ BitVec 64))
(declare-fun var861259 () (_ BitVec 64))
(declare-fun var861238 () (_ BitVec 64))
(declare-fun var730144 () (_ BitVec 64))
(declare-fun temp2163_57 () (_ BitVec 64))
(declare-fun temp2163_58 () (_ BitVec 64))
(declare-fun var926795 () (_ BitVec 64))
(declare-fun var926774 () (_ BitVec 64))
(declare-fun var730147 () (_ BitVec 64))
(declare-fun temp2163_59 () (_ BitVec 64))
(declare-fun temp2163_61 () (_ BitVec 64))
(declare-fun temp2163_60 () (_ BitVec 64))
(declare-fun temp2163_63 () (_ BitVec 64))
(declare-fun temp2163_62 () (_ BitVec 64))
(declare-fun temp2163_65 () (_ BitVec 64))
(declare-fun temp2163_64 () (_ BitVec 64))
(declare-fun temp2163_66 () (_ BitVec 64))
(declare-fun var1057842 () (_ BitVec 64))
(declare-fun temp2163_67 () (_ BitVec 64))
(declare-fun var1057843 () (_ BitVec 64))
(declare-fun var1057844 () (_ BitVec 64))
(declare-fun var1057840 () (_ BitVec 64))
(declare-fun var664540 () (_ BitVec 64))
(declare-fun temp2163_68 () (_ BitVec 64))
(declare-fun var1123378 () (_ BitVec 64))
(declare-fun temp2163_69 () (_ BitVec 64))
(declare-fun var1123379 () (_ BitVec 64))
(declare-fun var1123380 () (_ BitVec 64))
(declare-fun var1123376 () (_ BitVec 64))
(declare-fun var664547 () (_ BitVec 64))
(declare-fun temp2163_70 () (_ BitVec 64))
(declare-fun var1188914 () (_ BitVec 64))
(declare-fun temp2163_71 () (_ BitVec 64))
(declare-fun var1188915 () (_ BitVec 64))
(declare-fun var1188916 () (_ BitVec 64))
(declare-fun var1188912 () (_ BitVec 64))
(declare-fun var664552 () (_ BitVec 64))
(declare-fun var76450 () (_ BitVec 64))
(declare-fun temp2163_72 () (_ BitVec 64))
(declare-fun temp2163_73 () (_ BitVec 64))
(declare-fun var76511 () (_ BitVec 64))
(declare-fun var76512 () (_ BitVec 64))
(declare-fun temp2163_75 () (_ BitVec 64))
(declare-fun temp2163_74 () (_ BitVec 64))
(declare-fun temp2163_77 () (_ BitVec 64))
(declare-fun temp2163_76 () (_ BitVec 64))
(assert (or (= ARGNAME_data_format_NAMEEND_STRFMT #x0000000000000000)
    (= ARGNAME_data_format_NAMEEND_STRFMT #x0000000000000001)
    (= ARGNAME_data_format_NAMEEND_STRFMT #x0000000000000002)
    (= ARGNAME_data_format_NAMEEND_STRFMT #x0000000000000003)
    (= ARGNAME_data_format_NAMEEND_STRFMT #x0000000000000004)
    (= ARGNAME_data_format_NAMEEND_STRFMT #x0000000000000005)))
(assert (= temp2163_1 #x0000000000000005))
(assert (= var76042
   (ite (= ARGNAME_input_NAMEEND_DIM temp2163_1)
        #x0000000000000001
        #x0000000000000000)))
(assert (= temp2163_2 #x0000000000000001))
(assert (= var76042 temp2163_2))
(assert (= temp2163_3 #x0000000000000005))
(assert (= var76103
   (ite (= ARGNAME_out_backprop_NAMEEND_DIM temp2163_3)
        #x0000000000000001
        #x0000000000000000)))
(assert (= temp2163_4 #x0000000000000001))
(assert (= var76103 temp2163_4))
(assert (= temp2163_5 #x0000000000000000))
(assert (= temp2163_6 (select ARGNAME_input_NAMEEND_DIMSIZE temp2163_5)))
(assert (= temp2163_7 #x0000000000000001))
(assert (= temp2163_8 (select ARGNAME_input_NAMEEND_DIMSIZE temp2163_7)))
(assert (= temp2163_9 #x0000000000000002))
(assert (= temp2163_10 (select ARGNAME_input_NAMEEND_DIMSIZE temp2163_9)))
(assert (= temp2163_11 #x0000000000000003))
(assert (= temp2163_12 (select ARGNAME_input_NAMEEND_DIMSIZE temp2163_11)))
(assert (= temp2163_13 #x0000000000000004))
(assert (= temp2163_14 (select ARGNAME_input_NAMEEND_DIMSIZE temp2163_13)))
(assert (= temp2163_15 #x0000000000000005))
(assert (= temp2163_16 (select ARGNAME_input_NAMEEND_DIMSIZE temp2163_15)))
(assert (= temp2163_17 #x0000000000000004))
(assert (= temp2163_18 (select ARGNAME_input_NAMEEND_DIMSIZE temp2163_17)))
(assert (= var76131 temp2163_18))
(assert (= temp2163_19 #x0000000000000000))
(assert (= temp2163_20 (select ARGNAME_out_backprop_NAMEEND_DIMSIZE temp2163_19)))
(assert (= temp2163_21 #x0000000000000001))
(assert (= temp2163_22 (select ARGNAME_out_backprop_NAMEEND_DIMSIZE temp2163_21)))
(assert (= temp2163_23 #x0000000000000002))
(assert (= temp2163_24 (select ARGNAME_out_backprop_NAMEEND_DIMSIZE temp2163_23)))
(assert (= temp2163_25 #x0000000000000003))
(assert (= temp2163_26 (select ARGNAME_out_backprop_NAMEEND_DIMSIZE temp2163_25)))
(assert (= temp2163_27 #x0000000000000004))
(assert (= temp2163_28 (select ARGNAME_out_backprop_NAMEEND_DIMSIZE temp2163_27)))
(assert (= temp2163_29 #x0000000000000005))
(assert (= temp2163_30 (select ARGNAME_out_backprop_NAMEEND_DIMSIZE temp2163_29)))
(assert (= temp2163_31 #x0000000000000004))
(assert (= temp2163_32 (select ARGNAME_out_backprop_NAMEEND_DIMSIZE temp2163_31)))
(assert (= var76165 temp2163_32))
(assert (= temp2163_33 #x0000000000000000))
(assert (= var76268
   (ite (= ARGNAME_input_NAMEEND_NUMELEMENT temp2163_33)
        #x0000000000000001
        #x0000000000000000)))
(assert (= temp2163_34 #x0000000000000000))
(assert (= var76268 temp2163_34))
(assert (= temp2163_35 #x0000000000000001))
(assert (= var275510 temp2163_35))
(assert (= temp2163_36 #x0000000000000001))
(assert (= var275528
   (ite (bvslt var275510 temp2163_36) #x0000000000000001 #x0000000000000000)))
(assert (= temp2163_37 #x0000000000000000))
(assert (= var275528 temp2163_37))
(assert (= temp2163_39 #x0000000000000000))
(assert (= temp2163_38 temp2163_39))
(assert (= temp2163_41 #x0000000000000000))
(assert (= temp2163_40 temp2163_41))
(assert (= temp2163_42 #x0000000000000001))
(assert (= var406582 temp2163_42))
(assert (= temp2163_43 #x0000000000000001))
(assert (= var406600
   (ite (bvslt var406582 temp2163_43) #x0000000000000001 #x0000000000000000)))
(assert (= temp2163_44 #x0000000000000000))
(assert (= var406600 temp2163_44))
(assert (= temp2163_45 #x0000000000000001))
(assert (= var537654 temp2163_45))
(assert (= temp2163_46 #x0000000000000001))
(assert (= var537672
   (ite (bvslt var537654 temp2163_46) #x0000000000000001 #x0000000000000000)))
(assert (= temp2163_47 #x0000000000000000))
(assert (= var537672 temp2163_47))
(assert (= temp2163_49 #x0000000000000000))
(assert (= temp2163_48 temp2163_49))
(assert (= temp2163_51 #x00000000000000ff))
(assert (= temp2163_50 temp2163_51))
(assert (= temp2163_53 #x00000000000000ff))
(assert (= temp2163_52 temp2163_53))
(assert (= temp2163_55 #x00000000000000ff))
(assert (= temp2163_54 temp2163_55))
(assert (= temp2163_56 #x0000000000000000))
(assert (= var861259 temp2163_56))
(assert (= var861238 var861259))
(assert (= var730144 var861238))
(assert (= temp2163_57 #x0000000000000000))
(assert (= var730144 temp2163_57))
(assert (= temp2163_58 #x0000000000000000))
(assert (= var926795 temp2163_58))
(assert (= var926774 var926795))
(assert (= var730147 var926774))
(assert (= temp2163_59 #x0000000000000000))
(assert (= var730147 temp2163_59))
(assert (= temp2163_61 #x0000000000000000))
(assert (= temp2163_60 temp2163_61))
(assert (= temp2163_63 #x0000000000000000))
(assert (= temp2163_62 temp2163_63))
(assert (= temp2163_65 #x0000000000000000))
(assert (= temp2163_64 temp2163_65))
(assert (= temp2163_66 #x0000000000008000))
(assert (= var1057842 temp2163_66))
(assert (= temp2163_67 #x0000000000000001))
(assert (= var1057843
   (ite (bvslt temp2163_64 temp2163_67) #x0000000000000001 #x0000000000000000)))
(assert (= var1057844 (ite (= var1057843 #x0000000000000001) var1057842 temp2163_64)))
(assert (= var1057840 var1057844))
(assert (= var664540 var1057840))
(assert (= temp2163_68 #x0000000000040000))
(assert (= var1123378 temp2163_68))
(assert (= temp2163_69 #x0000000000000001))
(assert (= var1123379
   (ite (bvslt temp2163_62 temp2163_69) #x0000000000000001 #x0000000000000000)))
(assert (= var1123380 (ite (= var1123379 #x0000000000000001) var1123378 temp2163_62)))
(assert (= var1123376 var1123380))
(assert (= var664547 var1123376))
(assert (= temp2163_70 #x0000000000200000))
(assert (= var1188914 temp2163_70))
(assert (= temp2163_71 #x0000000000000001))
(assert (= var1188915
   (ite (bvslt temp2163_60 temp2163_71) #x0000000000000001 #x0000000000000000)))
(assert (= var1188916 (ite (= var1188915 #x0000000000000001) var1188914 temp2163_60)))
(assert (= var1188912 var1188916))
(assert (= var664552 var1188912))
(assert (= var76450 var664552))
(assert (= temp2163_72 #x0000000000000003))
(assert (= temp2163_73 #xffffffffffffffff))
(assert (= var76512 (bvadd var76511 temp2163_73)))
(assert (= temp2163_75 #x0000000000000000))
(assert (= temp2163_74 temp2163_75))
(assert (= temp2163_77 #x0000000000000000))
(assert (= temp2163_76 temp2163_77))
(model-add temp2163_1 () (_ BitVec 64) #x0000000000000005)
(model-add temp2163_2 () (_ BitVec 64) #x0000000000000001)
(model-add var76042 () (_ BitVec 64) #x0000000000000001)
(model-del k!0)
(model-add ARGNAME_input_NAMEEND_DIM
           ()
           (_ BitVec 64)
           (ite k!0 #x0000000000000005 (bvnot #x0000000000000005)))



